\ Model prob_74
\ LP format - for model browsing. Use MPS format to capture full model detail.
Minimize
  151000 open[0] + 192000 open[1] + 114000 open[2] + 171000 open[3]
   + 160000 open[4] + 5 x[0,0] + 2 x[0,1] + 3 x[0,2] + 3 x[0,3] + 3 x[0,4]
   + 5 x[1,0] + 4 x[1,1] + 3 x[1,2] + 5 x[1,3] + 2 x[1,4] + 4 x[2,0]
   + 2 x[2,1] + 4 x[2,2] + 5 x[2,3] + x[2,4] + 4 x[3,0] + 2 x[3,1]
   + 5 x[3,2] + 4 x[3,3] + x[3,4] + x[4,0] + 3 x[4,1] + 3 x[4,2] + 2 x[4,3]
   + 4 x[4,4]
Subject To
 R0: x[0,0] + x[1,0] + x[2,0] + x[3,0] + x[4,0] >= 589
 R1: x[0,1] + x[1,1] + x[2,1] + x[3,1] + x[4,1] >= 962
 R2: x[0,2] + x[1,2] + x[2,2] + x[3,2] + x[4,2] >= 966
 R3: x[0,3] + x[1,3] + x[2,3] + x[3,3] + x[4,3] >= 643
 R4: x[0,4] + x[1,4] + x[2,4] + x[3,4] + x[4,4] >= 904
 R5: - 1954 open[0] + x[0,0] + x[0,1] + x[0,2] + x[0,3] + x[0,4] <= 0
 R6: - 1446 open[1] + x[1,0] + x[1,1] + x[1,2] + x[1,3] + x[1,4] <= 0
 R7: - 820 open[2] + x[2,0] + x[2,1] + x[2,2] + x[2,3] + x[2,4] <= 0
 R8: - 1640 open[3] + x[3,0] + x[3,1] + x[3,2] + x[3,3] + x[3,4] <= 0
 R9: - 966 open[4] + x[4,0] + x[4,1] + x[4,2] + x[4,3] + x[4,4] <= 0
Bounds
Binaries
 open[0] open[1] open[2] open[3] open[4]
End
